p tw 320 1408
1 33
2 34
3 35
4 36
5 37
6 38
7 39
8 40
9 41
10 42
11 43
12 44
13 45
14 46
15 47
16 48
17 49
18 50
19 51
20 52
21 53
22 54
23 55
24 56
25 57
26 58
27 59
28 60
29 61
30 62
31 63
32 64
33 65
33 66
33 67
33 68
33 69
33 70
34 126
34 135
34 142
34 149
34 155
34 158
35 71
35 105
35 113
35 114
35 115
35 116
36 95
36 96
36 97
36 98
36 99
36 100
37 96
37 113
37 117
37 118
37 119
37 120
38 72
38 90
38 118
38 129
38 132
38 133
39 68
39 119
39 145
39 152
39 153
39 154
40 74
40 115
40 153
40 169
40 170
40 171
41 73
41 127
41 143
41 163
41 165
41 168
42 111
42 114
42 146
42 165
42 166
42 167
43 77
43 78
43 79
43 80
43 81
43 82
44 92
44 102
44 139
44 152
44 159
44 160
45 98
45 106
45 134
45 135
45 136
45 137
46 77
46 101
46 105
46 106
46 107
46 108
47 110
47 123
47 159
47 161
47 163
47 164
48 86
48 107
48 132
48 155
48 156
48 157
49 79
49 130
49 138
49 142
49 143
49 144
50 66
50 121
50 125
50 126
50 127
50 128
51 93
51 136
51 140
51 156
51 172
51 173
52 65
52 95
52 101
52 102
52 103
52 104
53 67
53 134
53 145
53 146
53 147
53 148
54 78
54 84
54 109
54 129
54 130
54 131
55 69
55 87
55 103
55 150
55 161
55 162
56 97
56 117
56 121
56 122
56 123
56 124
57 80
57 122
57 125
57 149
57 150
57 151
58 89
58 90
58 91
58 92
58 93
58 94
59 75
59 147
59 170
59 172
59 174
59 176
60 83
60 84
60 85
60 86
60 87
60 88
61 83
61 89
61 109
61 110
61 111
61 112
62 71
62 72
62 73
62 74
62 75
62 76
63 81
63 99
63 166
63 169
63 174
63 175
64 85
64 91
64 138
64 139
64 140
64 141
65 66
65 67
65 68
65 69
65 70
65 95
65 101
65 102
65 103
65 104
66 67
66 68
66 69
66 70
66 121
66 125
66 126
66 127
66 128
67 68
67 69
67 70
67 134
67 145
67 146
67 147
67 148
68 69
68 70
68 119
68 145
68 152
68 153
68 154
69 70
69 87
69 103
69 150
69 161
69 162
70 177
70 178
70 179
70 180
70 181
70 182
71 72
71 73
71 74
71 75
71 76
71 105
71 113
71 114
71 115
71 116
72 73
72 74
72 75
72 76
72 90
72 118
72 129
72 132
72 133
73 74
73 75
73 76
73 127
73 143
73 163
73 165
73 168
74 75
74 76
74 115
74 153
74 169
74 170
74 171
75 76
75 147
75 170
75 172
75 174
75 176
76 183
76 184
76 185
76 186
76 187
76 188
77 78
77 79
77 80
77 81
77 82
77 101
77 105
77 106
77 107
77 108
78 79
78 80
78 81
78 82
78 84
78 109
78 129
78 130
78 131
79 80
79 81
79 82
79 130
79 138
79 142
79 143
79 144
80 81
80 82
80 122
80 125
80 149
80 150
80 151
81 82
81 99
81 166
81 169
81 174
81 175
82 189
82 190
82 191
82 192
82 193
82 194
83 84
83 85
83 86
83 87
83 88
83 89
83 109
83 110
83 111
83 112
84 85
84 86
84 87
84 88
84 109
84 129
84 130
84 131
85 86
85 87
85 88
85 91
85 138
85 139
85 140
85 141
86 87
86 88
86 107
86 132
86 155
86 156
86 157
87 88
87 103
87 150
87 161
87 162
88 195
88 196
88 197
88 198
88 199
88 200
89 90
89 91
89 92
89 93
89 94
89 109
89 110
89 111
89 112
90 91
90 92
90 93
90 94
90 118
90 129
90 132
90 133
91 92
91 93
91 94
91 138
91 139
91 140
91 141
92 93
92 94
92 102
92 139
92 152
92 159
92 160
93 94
93 136
93 140
93 156
93 172
93 173
94 201
94 202
94 203
94 204
94 205
94 206
95 96
95 97
95 98
95 99
95 100
95 101
95 102
95 103
95 104
96 97
96 98
96 99
96 100
96 113
96 117
96 118
96 119
96 120
97 98
97 99
97 100
97 117
97 121
97 122
97 123
97 124
98 99
98 100
98 106
98 134
98 135
98 136
98 137
99 100
99 166
99 169
99 174
99 175
100 207
100 208
100 209
100 210
100 211
100 212
101 102
101 103
101 104
101 105
101 106
101 107
101 108
102 103
102 104
102 139
102 152
102 159
102 160
103 104
103 150
103 161
103 162
104 177
104 207
104 213
104 214
104 215
104 216
105 106
105 107
105 108
105 113
105 114
105 115
105 116
106 107
106 108
106 134
106 135
106 136
106 137
107 108
107 132
107 155
107 156
107 157
108 189
108 213
108 217
108 218
108 219
108 220
109 110
109 111
109 112
109 129
109 130
109 131
110 111
110 112
110 123
110 159
110 161
110 163
110 164
111 112
111 114
111 146
111 165
111 166
111 167
112 195
112 201
112 221
112 222
112 223
112 224
113 114
113 115
113 116
113 117
113 118
113 119
113 120
114 115
114 116
114 146
114 165
114 166
114 167
115 116
115 153
115 169
115 170
115 171
116 183
116 217
116 225
116 226
116 227
116 228
117 118
117 119
117 120
117 121
117 122
117 123
117 124
118 119
118 120
118 129
118 132
118 133
119 120
119 145
119 152
119 153
119 154
120 208
120 225
120 229
120 230
120 231
120 232
121 122
121 123
121 124
121 125
121 126
121 127
121 128
122 123
122 124
122 125
122 149
122 150
122 151
123 124
123 159
123 161
123 163
123 164
124 209
124 229
124 233
124 234
124 235
124 236
125 126
125 127
125 128
125 149
125 150
125 151
126 127
126 128
126 135
126 142
126 149
126 155
126 158
127 128
127 143
127 163
127 165
127 168
128 178
128 233
128 237
128 238
128 239
128 240
129 130
129 131
129 132
129 133
130 131
130 138
130 142
130 143
130 144
131 190
131 196
131 221
131 241
131 242
131 243
132 133
132 155
132 156
132 157
133 184
133 202
133 230
133 241
133 244
133 245
134 135
134 136
134 137
134 145
134 146
134 147
134 148
135 136
135 137
135 142
135 149
135 155
135 158
136 137
136 140
136 156
136 172
136 173
137 210
137 218
137 246
137 247
137 248
137 249
138 139
138 140
138 141
138 142
138 143
138 144
139 140
139 141
139 152
139 159
139 160
140 141
140 156
140 172
140 173
141 197
141 203
141 250
141 251
141 252
141 253
142 143
142 144
142 149
142 155
142 158
143 144
143 163
143 165
143 168
144 191
144 242
144 250
144 254
144 255
144 256
145 146
145 147
145 148
145 152
145 153
145 154
146 147
146 148
146 165
146 166
146 167
147 148
147 170
147 172
147 174
147 176
148 179
148 246
148 257
148 258
148 259
148 260
149 150
149 151
149 155
149 158
150 151
150 161
150 162
151 192
151 234
151 237
151 261
151 262
151 263
152 153
152 154
152 159
152 160
153 154
153 169
153 170
153 171
154 180
154 231
154 257
154 264
154 265
154 266
155 156
155 157
155 158
156 157
156 172
156 173
157 198
157 219
157 244
157 267
157 268
157 269
158 238
158 247
158 254
158 261
158 267
158 270
159 160
159 161
159 163
159 164
160 204
160 214
160 251
160 264
160 271
160 272
161 162
161 163
161 164
162 181
162 199
162 215
162 262
162 273
162 274
163 164
163 165
163 168
164 222
164 235
164 271
164 273
164 275
164 276
165 166
165 167
165 168
166 167
166 169
166 174
166 175
167 223
167 226
167 258
167 277
167 278
167 279
168 185
168 239
168 255
168 275
168 277
168 280
169 170
169 171
169 174
169 175
170 171
170 172
170 174
170 176
171 186
171 227
171 265
171 281
171 282
171 283
172 173
172 174
172 176
173 205
173 248
173 252
173 268
173 284
173 285
174 175
174 176
175 193
175 211
175 278
175 281
175 286
175 287
176 187
176 259
176 282
176 284
176 286
176 288
177 178
177 179
177 180
177 181
177 182
177 207
177 213
177 214
177 215
177 216
178 179
178 180
178 181
178 182
178 233
178 237
178 238
178 239
178 240
179 180
179 181
179 182
179 246
179 257
179 258
179 259
179 260
180 181
180 182
180 231
180 257
180 264
180 265
180 266
181 182
181 199
181 215
181 262
181 273
181 274
182 320
183 184
183 185
183 186
183 187
183 188
183 217
183 225
183 226
183 227
183 228
184 185
184 186
184 187
184 188
184 202
184 230
184 241
184 244
184 245
185 186
185 187
185 188
185 239
185 255
185 275
185 277
185 280
186 187
186 188
186 227
186 265
186 281
186 282
186 283
187 188
187 259
187 282
187 284
187 286
187 288
188 291
189 190
189 191
189 192
189 193
189 194
189 213
189 217
189 218
189 219
189 220
190 191
190 192
190 193
190 194
190 196
190 221
190 241
190 242
190 243
191 192
191 193
191 194
191 242
191 250
191 254
191 255
191 256
192 193
192 194
192 234
192 237
192 261
192 262
192 263
193 194
193 211
193 278
193 281
193 286
193 287
194 310
195 196
195 197
195 198
195 199
195 200
195 201
195 221
195 222
195 223
195 224
196 197
196 198
196 199
196 200
196 221
196 241
196 242
196 243
197 198
197 199
197 200
197 203
197 250
197 251
197 252
197 253
198 199
198 200
198 219
198 244
198 267
198 268
198 269
199 200
199 215
199 262
199 273
199 274
200 293
201 202
201 203
201 204
201 205
201 206
201 221
201 222
201 223
201 224
202 203
202 204
202 205
202 206
202 230
202 241
202 244
202 245
203 204
203 205
203 206
203 250
203 251
203 252
203 253
204 205
204 206
204 214
204 251
204 264
204 271
204 272
205 206
205 248
205 252
205 268
205 284
205 285
206 295
207 208
207 209
207 210
207 211
207 212
207 213
207 214
207 215
207 216
208 209
208 210
208 211
208 212
208 225
208 229
208 230
208 231
208 232
209 210
209 211
209 212
209 229
209 233
209 234
209 235
209 236
210 211
210 212
210 218
210 246
210 247
210 248
210 249
211 212
211 278
211 281
211 286
211 287
212 317
213 214
213 215
213 216
213 217
213 218
213 219
213 220
214 215
214 216
214 251
214 264
214 271
214 272
215 216
215 262
215 273
215 274
216 301
217 218
217 219
217 220
217 225
217 226
217 227
217 228
218 219
218 220
218 246
218 247
218 248
218 249
219 220
219 244
219 267
219 268
219 269
220 307
221 222
221 223
221 224
221 241
221 242
221 243
222 223
222 224
222 235
222 271
222 273
222 275
222 276
223 224
223 226
223 258
223 277
223 278
223 279
224 292
225 226
225 227
225 228
225 229
225 230
225 231
225 232
226 227
226 228
226 258
226 277
226 278
226 279
227 228
227 265
227 281
227 282
227 283
228 318
229 230
229 231
229 232
229 233
229 234
229 235
229 236
230 231
230 232
230 241
230 244
230 245
231 232
231 257
231 264
231 265
231 266
232 316
233 234
233 235
233 236
233 237
233 238
233 239
233 240
234 235
234 236
234 237
234 261
234 262
234 263
235 236
235 271
235 273
235 275
235 276
236 297
237 238
237 239
237 240
237 261
237 262
237 263
238 239
238 240
238 247
238 254
238 261
238 267
238 270
239 240
239 255
239 275
239 277
239 280
240 303
241 242
241 243
241 244
241 245
242 243
242 250
242 254
242 255
242 256
243 299
244 245
244 267
244 268
244 269
245 315
246 247
246 248
246 249
246 257
246 258
246 259
246 260
247 248
247 249
247 254
247 261
247 267
247 270
248 249
248 252
248 268
248 284
248 285
249 308
250 251
250 252
250 253
250 254
250 255
250 256
251 252
251 253
251 264
251 271
251 272
252 253
252 268
252 284
252 285
253 289
254 255
254 256
254 261
254 267
254 270
255 256
255 275
255 277
255 280
256 304
257 258
257 259
257 260
257 264
257 265
257 266
258 259
258 260
258 277
258 278
258 279
259 260
259 282
259 284
259 286
259 288
260 300
261 262
261 263
261 267
261 270
262 263
262 273
262 274
263 296
264 265
264 266
264 271
264 272
265 266
265 281
265 282
265 283
266 314
267 268
267 269
267 270
268 269
268 284
268 285
269 305
270 319
271 272
271 273
271 275
271 276
272 309
273 274
273 275
273 276
274 298
275 276
275 277
275 280
276 306
277 278
277 279
277 280
278 279
278 281
278 286
278 287
279 311
280 312
281 282
281 283
281 286
281 287
282 283
282 284
282 286
282 288
283 313
284 285
284 286
284 288
285 302
286 287
286 288
287 290
288 294
